p cnf 116 460
c p weight 50 0 0
c p weight -50 1 0
c p weight 51 1.0 0
c p weight -51 1 0
46 -45 43 0
46 -45 44 0
-46 45 43 0
-46 45 44 0
46 45 -43 -44 0
-46 -45 -43 -44 0
47 43 -44 0
47 -43 44 0
-47 43 44 0
-47 -43 -44 0
48 49 -46 0
48 -46 47 0
-48 49 46 0
-48 46 47 0
48 -46 -43 0
-48 46 -43 0
48 -49 46 43 -47 0
-48 -49 -46 43 -47 0
49 -43 47 0
-49 43 47 0
-50 47 0
49 -50 -43 0
-49 -50 43 0
49 50 43 -47 0
-49 50 -43 -47 0
-51 47 0
49 -51 43 0
-49 -51 -43 0
49 51 -43 -47 0
-49 51 43 -47 0
52 -48 49 0
52 -48 47 0
-52 48 49 0
-52 48 47 0
52 48 -49 -47 0
-52 -48 -49 -47 0
53 49 -47 0
53 -49 47 0
-53 49 47 0
-53 -49 -47 0
54 -52 49 0
54 -52 42 0
-54 52 49 0
-54 52 42 0
54 -52 41 -53 0
54 -52 -41 53 0
-54 52 41 -53 0
-54 52 -41 53 0
54 52 -49 41 53 -42 0
54 52 -49 -41 -53 -42 0
-54 -52 -49 41 53 -42 0
-54 -52 -49 -41 -53 -42 0
56 49 -41 0
56 -49 41 0
-56 49 41 0
-56 -49 -41 0
55 53 -42 0
55 -53 42 0
-55 53 42 0
-55 -53 -42 0
57 -54 56 0
57 -54 40 0
-57 54 56 0
-57 54 40 0
57 -54 39 -42 0
57 -54 -39 42 0
-57 54 39 -42 0
-57 54 -39 42 0
57 54 -56 39 42 -40 0
57 54 -56 -39 -42 -40 0
-57 -54 -56 39 42 -40 0
-57 -54 -56 -39 -42 -40 0
59 56 -39 0
59 -56 39 0
-59 56 39 0
-59 -56 -39 0
58 42 -40 0
58 -42 40 0
-58 42 40 0
-58 -42 -40 0
60 -57 59 0
60 -57 38 0
-60 57 59 0
-60 57 38 0
60 -57 37 -40 0
60 -57 -37 40 0
-60 57 37 -40 0
-60 57 -37 40 0
60 57 -59 37 40 -38 0
60 57 -59 -37 -40 -38 0
-60 -57 -59 37 40 -38 0
-60 -57 -59 -37 -40 -38 0
62 59 -37 0
62 -59 37 0
-62 59 37 0
-62 -59 -37 0
61 40 -38 0
61 -40 38 0
-61 40 38 0
-61 -40 -38 0
63 -60 62 0
63 -60 36 0
-63 60 62 0
-63 60 36 0
63 -60 35 -38 0
63 -60 -35 38 0
-63 60 35 -38 0
-63 60 -35 38 0
63 60 -62 35 38 -36 0
63 60 -62 -35 -38 -36 0
-63 -60 -62 35 38 -36 0
-63 -60 -62 -35 -38 -36 0
65 62 -35 0
65 -62 35 0
-65 62 35 0
-65 -62 -35 0
64 38 -36 0
64 -38 36 0
-64 38 36 0
-64 -38 -36 0
66 -63 65 0
66 -63 34 0
-66 63 65 0
-66 63 34 0
66 -63 33 -36 0
66 -63 -33 36 0
-66 63 33 -36 0
-66 63 -33 36 0
66 63 -65 33 36 -34 0
66 63 -65 -33 -36 -34 0
-66 -63 -65 33 36 -34 0
-66 -63 -65 -33 -36 -34 0
68 65 -33 0
68 -65 33 0
-68 65 33 0
-68 -65 -33 0
67 36 -34 0
67 -36 34 0
-67 36 34 0
-67 -36 -34 0
69 -66 68 0
69 -66 32 0
-69 66 68 0
-69 66 32 0
69 -66 31 -34 0
69 -66 -31 34 0
-69 66 31 -34 0
-69 66 -31 34 0
69 66 -68 31 34 -32 0
69 66 -68 -31 -34 -32 0
-69 -66 -68 31 34 -32 0
-69 -66 -68 -31 -34 -32 0
71 68 -31 0
71 -68 31 0
-71 68 31 0
-71 -68 -31 0
70 34 -32 0
70 -34 32 0
-70 34 32 0
-70 -34 -32 0
72 -69 71 0
72 -69 30 0
-72 69 71 0
-72 69 30 0
72 -69 29 -32 0
72 -69 -29 32 0
-72 69 29 -32 0
-72 69 -29 32 0
72 69 -71 29 32 -30 0
72 69 -71 -29 -32 -30 0
-72 -69 -71 29 32 -30 0
-72 -69 -71 -29 -32 -30 0
74 71 -29 0
74 -71 29 0
-74 71 29 0
-74 -71 -29 0
73 32 -30 0
73 -32 30 0
-73 32 30 0
-73 -32 -30 0
75 -72 74 0
75 -72 28 0
-75 72 74 0
-75 72 28 0
75 -72 27 -30 0
75 -72 -27 30 0
-75 72 27 -30 0
-75 72 -27 30 0
75 72 -74 27 30 -28 0
75 72 -74 -27 -30 -28 0
-75 -72 -74 27 30 -28 0
-75 -72 -74 -27 -30 -28 0
77 74 -27 0
77 -74 27 0
-77 74 27 0
-77 -74 -27 0
76 30 -28 0
76 -30 28 0
-76 30 28 0
-76 -30 -28 0
78 -75 77 0
78 -75 26 0
-78 75 77 0
-78 75 26 0
78 -75 25 -28 0
78 -75 -25 28 0
-78 75 25 -28 0
-78 75 -25 28 0
78 75 -77 25 28 -26 0
78 75 -77 -25 -28 -26 0
-78 -75 -77 25 28 -26 0
-78 -75 -77 -25 -28 -26 0
80 77 -25 0
80 -77 25 0
-80 77 25 0
-80 -77 -25 0
79 28 -26 0
79 -28 26 0
-79 28 26 0
-79 -28 -26 0
81 -78 80 0
81 -78 24 0
-81 78 80 0
-81 78 24 0
81 -78 23 -26 0
81 -78 -23 26 0
-81 78 23 -26 0
-81 78 -23 26 0
81 78 -80 23 26 -24 0
81 78 -80 -23 -26 -24 0
-81 -78 -80 23 26 -24 0
-81 -78 -80 -23 -26 -24 0
83 80 -23 0
83 -80 23 0
-83 80 23 0
-83 -80 -23 0
82 26 -24 0
82 -26 24 0
-82 26 24 0
-82 -26 -24 0
84 -81 83 0
84 -81 22 0
-84 81 83 0
-84 81 22 0
84 -81 21 -24 0
84 -81 -21 24 0
-84 81 21 -24 0
-84 81 -21 24 0
84 81 -83 21 24 -22 0
84 81 -83 -21 -24 -22 0
-84 -81 -83 21 24 -22 0
-84 -81 -83 -21 -24 -22 0
86 83 -21 0
86 -83 21 0
-86 83 21 0
-86 -83 -21 0
85 24 -22 0
85 -24 22 0
-85 24 22 0
-85 -24 -22 0
87 -84 86 0
87 -84 20 0
-87 84 86 0
-87 84 20 0
87 -84 19 -22 0
87 -84 -19 22 0
-87 84 19 -22 0
-87 84 -19 22 0
87 84 -86 19 22 -20 0
87 84 -86 -19 -22 -20 0
-87 -84 -86 19 22 -20 0
-87 -84 -86 -19 -22 -20 0
89 86 -19 0
89 -86 19 0
-89 86 19 0
-89 -86 -19 0
88 22 -20 0
88 -22 20 0
-88 22 20 0
-88 -22 -20 0
90 -87 89 0
90 -87 18 0
-90 87 89 0
-90 87 18 0
90 -87 17 -20 0
90 -87 -17 20 0
-90 87 17 -20 0
-90 87 -17 20 0
90 87 -89 17 20 -18 0
90 87 -89 -17 -20 -18 0
-90 -87 -89 17 20 -18 0
-90 -87 -89 -17 -20 -18 0
92 89 -17 0
92 -89 17 0
-92 89 17 0
-92 -89 -17 0
91 20 -18 0
91 -20 18 0
-91 20 18 0
-91 -20 -18 0
93 -90 92 0
93 -90 16 0
-93 90 92 0
-93 90 16 0
93 -90 15 -18 0
93 -90 -15 18 0
-93 90 15 -18 0
-93 90 -15 18 0
93 90 -92 15 18 -16 0
93 90 -92 -15 -18 -16 0
-93 -90 -92 15 18 -16 0
-93 -90 -92 -15 -18 -16 0
95 92 -15 0
95 -92 15 0
-95 92 15 0
-95 -92 -15 0
94 18 -16 0
94 -18 16 0
-94 18 16 0
-94 -18 -16 0
96 -93 95 0
96 -93 14 0
-96 93 95 0
-96 93 14 0
96 -93 13 -16 0
96 -93 -13 16 0
-96 93 13 -16 0
-96 93 -13 16 0
96 93 -95 13 16 -14 0
96 93 -95 -13 -16 -14 0
-96 -93 -95 13 16 -14 0
-96 -93 -95 -13 -16 -14 0
98 95 -13 0
98 -95 13 0
-98 95 13 0
-98 -95 -13 0
97 16 -14 0
97 -16 14 0
-97 16 14 0
-97 -16 -14 0
99 -96 98 0
99 -96 12 0
-99 96 98 0
-99 96 12 0
99 -96 11 -14 0
99 -96 -11 14 0
-99 96 11 -14 0
-99 96 -11 14 0
99 96 -98 11 14 -12 0
99 96 -98 -11 -14 -12 0
-99 -96 -98 11 14 -12 0
-99 -96 -98 -11 -14 -12 0
101 98 -11 0
101 -98 11 0
-101 98 11 0
-101 -98 -11 0
100 14 -12 0
100 -14 12 0
-100 14 12 0
-100 -14 -12 0
102 -99 101 0
102 -99 10 0
-102 99 101 0
-102 99 10 0
102 -99 9 -12 0
102 -99 -9 12 0
-102 99 9 -12 0
-102 99 -9 12 0
102 99 -101 9 12 -10 0
102 99 -101 -9 -12 -10 0
-102 -99 -101 9 12 -10 0
-102 -99 -101 -9 -12 -10 0
104 101 -9 0
104 -101 9 0
-104 101 9 0
-104 -101 -9 0
103 12 -10 0
103 -12 10 0
-103 12 10 0
-103 -12 -10 0
105 -102 104 0
105 -102 8 0
-105 102 104 0
-105 102 8 0
105 -102 7 -10 0
105 -102 -7 10 0
-105 102 7 -10 0
-105 102 -7 10 0
105 102 -104 7 10 -8 0
105 102 -104 -7 -10 -8 0
-105 -102 -104 7 10 -8 0
-105 -102 -104 -7 -10 -8 0
107 104 -7 0
107 -104 7 0
-107 104 7 0
-107 -104 -7 0
106 10 -8 0
106 -10 8 0
-106 10 8 0
-106 -10 -8 0
108 -105 107 0
108 -105 6 0
-108 105 107 0
-108 105 6 0
108 -105 5 -8 0
108 -105 -5 8 0
-108 105 5 -8 0
-108 105 -5 8 0
108 105 -107 5 8 -6 0
108 105 -107 -5 -8 -6 0
-108 -105 -107 5 8 -6 0
-108 -105 -107 -5 -8 -6 0
110 107 -5 0
110 -107 5 0
-110 107 5 0
-110 -107 -5 0
109 8 -6 0
109 -8 6 0
-109 8 6 0
-109 -8 -6 0
111 -108 110 0
111 -108 4 0
-111 108 110 0
-111 108 4 0
111 -108 3 -6 0
111 -108 -3 6 0
-111 108 3 -6 0
-111 108 -3 6 0
111 108 -110 3 6 -4 0
111 108 -110 -3 -6 -4 0
-111 -108 -110 3 6 -4 0
-111 -108 -110 -3 -6 -4 0
113 110 -3 0
113 -110 3 0
-113 110 3 0
-113 -110 -3 0
112 6 -4 0
112 -6 4 0
-112 6 4 0
-112 -6 -4 0
114 -111 113 0
114 -111 2 0
-114 111 113 0
-114 111 2 0
114 -111 1 -4 0
114 -111 -1 4 0
-114 111 1 -4 0
-114 111 -1 4 0
114 111 -113 1 4 -2 0
114 111 -113 -1 -4 -2 0
-114 -111 -113 1 4 -2 0
-114 -111 -113 -1 -4 -2 0
116 113 -1 0
116 -113 1 0
-116 113 1 0
-116 -113 -1 0
115 4 -2 0
115 -4 2 0
-115 4 2 0
-115 -4 -2 0
